387,257
736,577
727,548
1001,569
977,452
711,406
639,364
300,25
584,336
611,503
756,880
998,842
681,886
415,599
491,596
342,652
254,623
628,379
628,433
761,366
1095,471
1155,481
504,59
745,207
1221,406
981,406
